RT is False
Default write of storage_offers_DA.csv just to have a file (but constraint should be inactive)
Reading model...
...model read.
creating competitive generators file...
...competitive generators recorded.
Loading data...
.. day-ahead data with real-time VRE data read.
Compiling instance...
...instance created.
Creating Offer Mitigation (model will solve as dispatch if TRUE)...
Solving...

Welcome to IBM(R) ILOG(R) CPLEX(R) Interactive Optimizer 12.8.0.0
  with Simplex, Mixed Integer & Barrier Optimizers
5725-A06 5725-A29 5724-Y48 5724-Y49 5724-Y54 5724-Y55 5655-Y21
Copyright IBM Corp. 1988, 2017.  All Rights Reserved.

Type 'help' for a list of available commands.
Type 'help' followed by a command name for more
information on commands.

CPLEX> Logfile 'cplex.log' closed.
Logfile 'C:\Users\llavi\Desktop\test919\logs\tmpqjzerj1u.cplex.log' open.
CPLEX> New value for parallel optimization mode: -1
CPLEX> New value for mixed integer optimality gap tolerance: 0.01
CPLEX> New value for integrality tolerance: 1e-09
CPLEX> New value for feasibility tolerance: 0.01
CPLEX> New value for deterministic time limit in ticks: 75000
CPLEX> Problem 'C:\Users\llavi\Desktop\test919\logs\tmp39u8y3i9.pyomo.lp' read.
Read time = 0.09 sec. (3.03 ticks)
CPLEX> Problem name         : C:\Users\llavi\Desktop\test919\logs\tmp39u8y3i9.pyomo.lp
Objective sense      : Minimize
Variables            :   26465  [Nneg: 1,  Box: 22000,  Free: 4464]
Objective nonzeros   :    2496
Linear constraints   :   27515  [Less: 14006,  Greater: 4416,  Equal: 9093]
  Nonzeros           :   89171
  RHS nonzeros       :   12271

Variables            : Min LB: -5000.000        Max UB: 1000000.       
Objective nonzeros   : Min   : 15.73158         Max   : 124.0997       
Linear constraints   :
  Nonzeros           : Min   : 0.8500000        Max   : 3000.000       
  RHS nonzeros       : Min   : 0.08333333       Max   : 5000.000       
CPLEX> CPXPARAM_Simplex_Tolerances_Feasibility          0.01
CPXPARAM_Parallel                                -1
CPXPARAM_DetTimeLimit                            75000
CPXPARAM_MIP_Tolerances_MIPGap                   0.01
CPXPARAM_MIP_Tolerances_Integrality              1.0000000000000001e-09
Parallel mode: opportunistic, using up to 4 threads for concurrent optimization.
Tried aggregator 1 time.
LP Presolve eliminated 21401 rows and 15895 columns.
Aggregator did 723 substitutions.
Reduced LP has 5391 rows, 9847 columns, and 31762 nonzeros.
Presolve time = 0.05 sec. (22.46 ticks)

Iteration log . . .
Iteration:     1   Dual objective     =             0.000000
Perturbation started.
Iteration:   101   Dual objective     =             0.000000
Iteration:   354   Dual objective     =             1.404151
Iteration:   637   Dual objective     =             2.037780
Iteration:   930   Dual objective     =             2.180612
Iteration:  1126   Dual objective     =             2.295039
Iteration:  1484   Dual objective     =             2.363170
Iteration:  1782   Dual objective     =             2.392157
Iteration:  2075   Dual objective     =             2.417521
Iteration:  2380   Dual objective     =             2.431440
Iteration:  2669   Dual objective     =             2.440153
Iteration:  3007   Dual objective     =             2.455097
Iteration:  3399   Dual objective     =             2.463071
Iteration:  3706   Dual objective     =         32375.153722
Iteration:  4100   Dual objective     =         52055.087434
Removing perturbation.

Dual simplex solved model.


Dual simplex - Optimal:  Objective =  5.7696839580e+04
Solution time =    0.17 sec.  Iterations = 4562 (0)
Deterministic time = 97.40 ticks  (566.27 ticks/sec)

CPLEX> Solution written to file 'C:\Users\llavi\Desktop\test919\logs\tmpp9bvckjf.cplex.sol'.
CPLEX> Exporting results... 
...storage offer mitigation file created
Converting model to MPEC...
...converted
NOTE: initial MIP solve with only storage competitive to get feasible solution
Solving...

Welcome to IBM(R) ILOG(R) CPLEX(R) Interactive Optimizer 12.8.0.0
  with Simplex, Mixed Integer & Barrier Optimizers
5725-A06 5725-A29 5724-Y48 5724-Y49 5724-Y54 5724-Y55 5655-Y21
Copyright IBM Corp. 1988, 2017.  All Rights Reserved.

Type 'help' for a list of available commands.
Type 'help' followed by a command name for more
information on commands.

CPLEX> Logfile 'cplex.log' closed.
Logfile 'C:\Users\llavi\Desktop\test919\logs\tmpjrin7t88.cplex.log' open.
CPLEX> New value for parallel optimization mode: -1
CPLEX> New value for mixed integer optimality gap tolerance: 0.01
CPLEX> New value for integrality tolerance: 1e-09
CPLEX> New value for feasibility tolerance: 0.01
CPLEX> New value for deterministic time limit in ticks: 75000
CPLEX> Problem 'C:\Users\llavi\Desktop\test919\logs\tmp7umv_htl.pyomo.lp' read.
Read time = 0.31 sec. (13.96 ticks)
CPLEX> Problem name         : C:\Users\llavi\Desktop\test919\logs\tmp7umv_htl.pyomo.lp
Objective sense      : Maximize
Variables            :   53805  [Nneg: 1,  Box: 22000,  Free: 4464,
                                 Binary: 27340]
Objective nonzeros   :    9078
Linear constraints   :  123205  [Less: 41346,  Greater: 59096,  Equal: 22763]
  Nonzeros           :  291705
  RHS nonzeros       :   67427

Variables            : Min LB: -5000.000        Max UB: 1000000.       
Objective nonzeros   : Min   : 0.08333333       Max   : 2500.000       
Linear constraints   :
  Nonzeros           : Min   : 0.08333333       Max   : 1000000.       
  RHS nonzeros       : Min   : 0.08333333       Max   : 1000000.       
CPLEX> CPXPARAM_Simplex_Tolerances_Feasibility          0.01
CPXPARAM_Parallel                                -1
CPXPARAM_DetTimeLimit                            75000
CPXPARAM_MIP_Tolerances_MIPGap                   0.01
CPXPARAM_MIP_Tolerances_Integrality              1.0000000000000001e-09
Tried aggregator 3 times.
MIP Presolve eliminated 88666 rows and 19014 columns.
MIP Presolve added 3354 rows and 0 columns.
MIP Presolve modified 23881 coefficients.
Aggregator did 12970 substitutions.
Reduced MIP has 24923 rows, 21265 columns, and 71041 nonzeros.
Reduced MIP has 8418 binaries, 0 generals, 0 SOSs, and 0 indicators.
Presolve time = 0.25 sec. (165.31 ticks)
Probing fixed 384 vars, tightened 2890 bounds.
Probing time = 3.13 sec. (899.13 ticks)
Tried aggregator 2 times.
MIP Presolve eliminated 872 rows and 770 columns.
MIP Presolve modified 2235 coefficients.
Aggregator did 34 substitutions.
Reduced MIP has 24017 rows, 20461 columns, and 68425 nonzeros.
Reduced MIP has 8033 binaries, 0 generals, 0 SOSs, and 0 indicators.
Presolve time = 0.13 sec. (53.91 ticks)
Probing time = 0.06 sec. (15.33 ticks)
Clique table members: 6520.
MIP emphasis: balance optimality and feasibility.
MIP search method: dynamic search.
Parallel mode: opportunistic, using up to 4 threads.
Root relaxation solution time = 0.41 sec. (433.16 ticks)

        Nodes                                         Cuts/
   Node  Left     Objective  IInf  Best Integer    Best Bound    ItCnt     Gap

      0     0        0.0000   648                      0.0000     2681         
*     0+    0                            0.0000        0.0000             0.00%
      0     0        cutoff              0.0000        0.0000     2681    0.00%
Elapsed time = 5.08 sec. (1929.73 ticks, tree = 0.01 MB, solutions = 1)

Root node processing (before b&c):
  Real time             =    5.09 sec. (1932.00 ticks)
Parallel b&c, 4 threads:
  Real time             =    0.00 sec. (0.00 ticks)
  Sync time (average)   =    0.00 sec.
  Wait time (average)   =    0.00 sec.
                          ------------
Total (root+branch&cut) =    5.09 sec. (1932.00 ticks)

Solution pool: 1 solution saved.

MIP - Integer optimal solution:  Objective =  2.7976057027e-09
Solution time =    5.09 sec.  Iterations = 2681  Nodes = 0
Deterministic time = 1932.16 ticks  (379.30 ticks/sec)

CPLEX> Incumbent solution written to file 'C:\Users\llavi\Desktop\test919\logs\tmp9h4jqd5r.cplex.sol'.
CPLEX> NOTE: no warmstart specified for MIP iteration, default behavior is true
NOTE: resolving with all competitive generators using storage-only solution to warmstart
Solving...

Welcome to IBM(R) ILOG(R) CPLEX(R) Interactive Optimizer 12.8.0.0
  with Simplex, Mixed Integer & Barrier Optimizers
5725-A06 5725-A29 5724-Y48 5724-Y49 5724-Y54 5724-Y55 5655-Y21
Copyright IBM Corp. 1988, 2017.  All Rights Reserved.

Type 'help' for a list of available commands.
Type 'help' followed by a command name for more
information on commands.

CPLEX> Logfile 'cplex.log' closed.
Logfile 'C:\Users\llavi\Desktop\test919\logs\tmp7uafev59.cplex.log' open.
CPLEX> New value for parallel optimization mode: -1
CPLEX> New value for mixed integer optimality gap tolerance: 0.01
CPLEX> New value for integrality tolerance: 1e-09
CPLEX> New value for feasibility tolerance: 0.01
CPLEX> New value for deterministic time limit in ticks: 75000
CPLEX> Problem 'C:\Users\llavi\Desktop\test919\logs\tmpwyxtr_cr.pyomo.lp' read.
Read time = 0.23 sec. (13.98 ticks)
CPLEX> MIP start file 'C:\Users\llavi\Desktop\test919\logs\tmp0mlc3h2w.cplex.mst' read.
CPLEX> Problem name         : C:\Users\llavi\Desktop\test919\logs\tmpwyxtr_cr.pyomo.lp
Objective sense      : Maximize
Variables            :   54525  [Nneg: 1,  Box: 22720,  Free: 4464,
                                 Binary: 27340]
Objective nonzeros   :    9774
Linear constraints   :  123205  [Less: 41346,  Greater: 59096,  Equal: 22763]
  Nonzeros           :  291705
  RHS nonzeros       :   67427

Variables            : Min LB: -5000.000        Max UB: 1000000.       
Objective nonzeros   : Min   : 0.08333333       Max   : 2500.000       
Linear constraints   :
  Nonzeros           : Min   : 0.08333333       Max   : 1000000.       
  RHS nonzeros       : Min   : 0.08333333       Max   : 1000000.       
CPLEX> CPXPARAM_Simplex_Tolerances_Feasibility          0.01
CPXPARAM_Parallel                                -1
CPXPARAM_DetTimeLimit                            75000
CPXPARAM_MIP_Tolerances_MIPGap                   0.01
CPXPARAM_MIP_Tolerances_Integrality              1.0000000000000001e-09
Warning:  No solution found from 1 MIP starts.
Retaining values of one MIP start for possible repair.
Tried aggregator 3 times.
MIP Presolve eliminated 88666 rows and 19734 columns.
MIP Presolve added 3354 rows and 0 columns.
MIP Presolve modified 23881 coefficients.
Aggregator did 12970 substitutions.
Reduced MIP has 24923 rows, 21265 columns, and 71041 nonzeros.
Reduced MIP has 8418 binaries, 0 generals, 0 SOSs, and 0 indicators.
Presolve time = 0.25 sec. (165.67 ticks)
Probing fixed 384 vars, tightened 2890 bounds.
Probing time = 3.03 sec. (899.13 ticks)
Tried aggregator 2 times.
MIP Presolve eliminated 872 rows and 770 columns.
MIP Presolve modified 2235 coefficients.
Aggregator did 34 substitutions.
Reduced MIP has 24017 rows, 20461 columns, and 68425 nonzeros.
Reduced MIP has 8033 binaries, 0 generals, 0 SOSs, and 0 indicators.
Presolve time = 0.13 sec. (53.92 ticks)
Probing time = 0.05 sec. (15.33 ticks)
Clique table members: 6520.
MIP emphasis: balance optimality and feasibility.
MIP search method: dynamic search.
Parallel mode: opportunistic, using up to 4 threads.
Root relaxation solution time = 0.50 sec. (515.69 ticks)

        Nodes                                         Cuts/
   Node  Left     Objective  IInf  Best Integer    Best Bound    ItCnt     Gap

      0     0   161327.3228   800                 161327.3228     2706         
      0     0   156963.1777   171                   Cuts: 244     2874         
      0     0   156206.1546   166                   Cuts: 153     2949         
      0     0   156157.9450   170                    Cuts: 74     2961         
      0     0   156157.9450   168                    Cuts: 75     2973         
      0     0   156135.2055   168                    Cuts: 75     2978         
      0     0   156135.2055   169                   Cuts: 108     2980         
Repair heuristic found nothing.
      0     2   156135.2055   169                 155947.9851     2980         
Elapsed time = 36.13 sec. (13705.68 ticks, tree = 0.03 MB, solutions = 0)
     67    42    97221.8491   143                 154919.6013     4100         
    147    75    77696.5371    99                 154919.6013     6051         
    241   108    74615.9425    91                 154919.6013     6814         
    312   163    24129.3579    60                 154919.6013     7755         
    372   186    -1590.0264    39                 154919.6013     8571         
    458   236    13030.1013    17                 154919.6013     8922         
    542   290    11952.5821    15                 154919.6013     9410         
    611   369    11952.5821    11                 154919.6013    10571         
    679   412    infeasible                       153905.6724    11800         
    865   499    42309.7224    88                 153905.6724    13556         
Elapsed time = 41.67 sec. (16834.89 ticks, tree = 4.13 MB, solutions = 0)
   1004   550     3702.9122    20                 153905.6724    15234         
   1203   673    29064.3334    57                 153400.9157    17054         
   1336   790    10700.3292    25                 153400.9157    17676         
   1378   747    11608.7858    11                 153400.9157    17516         
   1417   796    11196.3528    14                 153400.9157    17782         
   1516   838    11233.1944    30                 151050.5099    19101         
   1688   934  -185872.6493     8                 151050.5099    20761         
   1835  1033    22926.0417    49                 151050.5099    22213         
   2036  1168  -331285.2191    22                 151050.5099    24616         
   2223  1168    10700.3292    25                 151050.5099    24554         
Elapsed time = 56.05 sec. (26407.79 ticks, tree = 9.63 MB, solutions = 0)
   2426  1259  -123112.4389     8                 151050.5099    26707         
   2533  1196    10461.9562     8                 151050.5099    26166         
   2654  1364    10461.9562     8                 151050.5099    30403         
   2752  1523   -16897.4603    61                 151050.5099    32941         
   2870  1606    infeasible                       151050.5099    33816         
   2910  1612    infeasible                       151050.5099    33830         
   2939  1617   -13586.6602    13                 151050.5099    33876         
   2976  1537    infeasible                       151050.5099    33614         
   2997  1538    10461.9562     8                 151050.5099    33633         
   3020  1616    infeasible                       151050.5099    33877         
Elapsed time = 70.06 sec. (36194.00 ticks, tree = 13.47 MB, solutions = 0)
   3038  1617    infeasible                       151050.5099    33897         
*  3052  1626      integral     0  -123112.4389   151050.5099    33930  222.69%
   3132  1637    30415.1092    70  -123112.4389   151050.5099    35462  222.69%
   3234  1716    54013.2041    89  -123112.4389   151050.5099    36175  222.69%
   3319  1776    49351.1128    72  -123112.4389   151050.5099    37956  222.69%
   3417  1852    51867.9055    97  -123112.4389   151050.5099    38739  222.69%
   3496  1906      477.8591    28  -123112.4389   151050.5099    39668  222.69%
   3654  1826    40409.3348    87  -123112.4389   151050.5099    38913  222.69%
   3804  1881   -24144.4125    52  -123112.4389   151050.5099    40273  222.69%
   3954  1840    10293.5073    18  -123112.4389   149415.3175    39248  221.36%
Elapsed time = 83.16 sec. (45546.71 ticks, tree = 22.14 MB, solutions = 1)
   4039  1917    13065.0367    24  -123112.4389   149415.3175    40271  221.36%
   4119  2439    36832.4594    97  -123112.4389    44832.1976    54333  136.42%
   4317   107    14952.8981    58  -123112.4389    38449.7033    55354  131.23%
*  4514   208      integral     0    22590.8373    38449.7033    56544   70.20%
   4597   303   -22001.9983    50    22590.8373    38387.2898    56964   69.92%
   4817   284    23743.8710     7    23528.8430    38387.2898    59918   63.15%
   5002   350    25078.8962    86    23528.8430    38387.2898    61873   63.15%
   5200   369    25947.4909    79    23528.8430    38387.2898    60902   63.15%
   5298   496    31083.5040   130    23528.8430    38387.2898    65222   63.15%
   5501   522        cutoff          23528.8430    38387.2898    67477   63.15%
   5687   478        cutoff          23528.8430    38387.2898    71679   63.15%
Elapsed time = 119.72 sec. (61445.11 ticks, tree = 3.91 MB, solutions = 3)
   5908   527    25512.0919    20    23528.8430    38387.2898    73121   63.15%
   6088   562    24191.9562    73    23528.8430    38387.2898    73065   63.15%
   6147   484        cutoff          23528.8430    38387.2898    64277   63.15%
   6155   544        cutoff          23528.8430    38387.2898    73408   63.15%
   6163   499        cutoff          23528.8430    38387.2898    64664   63.15%
   6181   553        cutoff          23528.8430    38387.2898    73610   63.15%
   6193   558        cutoff          23528.8430    38387.2898    73635   63.15%
   6212   514        cutoff          23528.8430    38387.2898    68119   63.15%
   6219   567        cutoff          23528.8430    38387.2898    73878   63.15%
   6226   476        cutoff          23528.8430    38387.2898    71651   63.15%
Elapsed time = 127.17 sec. (73341.19 ticks, tree = 6.40 MB, solutions = 3)
   6229   448        cutoff          23528.8430    38387.2898    72952   63.15%

Clique cuts applied:  11
Cover cuts applied:  23
Implied bound cuts applied:  30
Flow cuts applied:  741
Mixed integer rounding cuts applied:  245
Gomory fractional cuts applied:  57

Root node processing (before b&c):
  Real time             =   35.84 sec. (13662.40 ticks)
Parallel b&c, 4 threads:
  Real time             =   91.38 sec. (61648.41 ticks)
  Sync time (average)   =    0.50 sec.
  Wait time (average)   =    0.02 sec.
                          ------------
Total (root+branch&cut) =  127.22 sec. (75310.81 ticks)

Solution pool: 3 solutions saved.

MIP - Deterministic time limit exceeded, integer feasible:  Objective =  2.3528842963e+04
Current MIP best bound =  3.8387289752e+04 (gap = 14858.4, 63.15%)
Solution time =  127.22 sec.  Iterations = 75318  Nodes = 6232 (741)
Deterministic time = 75310.96 ticks  (591.98 ticks/sec)

CPLEX> Incumbent solution written to file 'C:\Users\llavi\Desktop\test919\logs\tmprb56eei_.cplex.sol'.
CPLEX> Exporting results... 
